55544 100 1100 27 37 23 43 37 27 14 37 31 36 39 24 35 44 11 45 23 32 25 6 20 14 32 34 18 13 43 32 42 36 10 5 16 24 47 46 30 5 36 11 32 40 48 47 11 12 25 12 49 25 15 41 17 36 29 48 32 13 29 23 34 9 13 30 39 40 13 44 39 5 42 41 31 12 24 45 31 44 7 5 24 8 34 17 8 17 8 47 48 16 44 34 24 10 32 28 37 35 26 42 78 81 69 87 83 82 62 78 83 80 86 72 84 89 63 86 74 81 73 61 74 68 83 82 65 62 83 85 82 79 64 60 62 64 88 79 85 62 74 63 82 87 89 89 63 61 69 77 88 73 73 85 64 88 74 89 78 64 68 66 73 69 68 78 78 86 66 86 84 60 88 82 81 67 67 85 78 86 65 61 74 62 78 70 62 74 61 88 87 71 85 81 68 63 81 83 83 70 72 76
